
Gurobi 13.0.2 (win64) logging started Thu Jul 23 04:37:26 2026

Set parameter LogFile to value "E:\codes\ExactEBRP\results\gf_cplex_equivalent_gurobi_replica_round28\runs\stage1__V12_M2__c3_replica__300s\external\native_logs\R.1.0.0.1.1.0.1.1.0.0_terminal_mip.gurobi.log"
Gurobi Optimizer version 13.0.2 build v13.0.2rc1 (win64 - Windows 10.0 (19045.2))

CPU model: 12th Gen Intel(R) Core(TM) i7-12700KF, instruction set [SSE2|AVX|AVX2]
Thread count: 12 physical cores, 20 logical processors, using up to 1 threads

Non-default parameters:
TimeLimit  154.5909385
MIPGap  0
MIPGapAbs  0
LogToConsole  0
Threads  1

Optimize a model with 11351 rows, 1034 columns and 113600 nonzeros (Min)
Model fingerprint: 0xc2be5fd2
Model has 13 linear objective coefficients
Variable types: 516 continuous, 518 integer (434 binary)
Coefficient statistics:
  Matrix range     [5e-05, 1e+05]
  Objective range  [5e-05, 1e+00]
  Bounds range     [4e-01, 3e+02]
  RHS range        [2e-01, 1e+06]

Presolve removed 1185 rows and 33 columns
Presolve time: 0.29s
Presolved: 10166 rows, 1001 columns, 136490 nonzeros
Variable types: 487 continuous, 514 integer (430 binary)
Root relaxation presolved: 10127 rows, 978 columns, 136403 nonzeros


Root relaxation: objective 6.536981e-01, 1432 iterations, 0.17 seconds (0.49 work units)

    Nodes    |    Current Node    |     Objective Bounds      |     Work
 Expl Unexpl |  Obj  Depth IntInf | Incumbent    BestBd   Gap | It/Node Time

     0     0    0.65370    0  146          -    0.65370      -     -    0s
     0     0    0.66688    0  138          -    0.66688      -     -    0s
     0     0    0.66700    0  136          -    0.66700      -     -    1s
     0     0    0.66818    0  162          -    0.66818      -     -    1s
     0     0    0.66843    0  162          -    0.66843      -     -    1s
     0     0    0.67021    0  152          -    0.67021      -     -    1s
     0     0    0.67061    0  164          -    0.67061      -     -    1s
     0     0    0.67195    0  172          -    0.67195      -     -    2s
     0     0    0.67223    0  186          -    0.67223      -     -    2s
     0     0    0.67240    0  147          -    0.67240      -     -    3s
     0     0    0.67276    0  175          -    0.67276      -     -    3s
     0     0    0.67278    0  188          -    0.67278      -     -    3s
     0     0    0.67290    0  182          -    0.67290      -     -    3s
     0     0    0.67313    0  186          -    0.67313      -     -    4s
     0     0    0.67322    0  181          -    0.67322      -     -    4s
     0     0    0.67332    0  192          -    0.67332      -     -    4s
     0     0    0.67343    0  181          -    0.67343      -     -    4s
     0     0    0.67353    0  194          -    0.67353      -     -    5s
     0     0    0.67354    0  183          -    0.67354      -     -    5s
     0     0    0.67356    0  203          -    0.67356      -     -    5s
     0     0    0.67356    0  207          -    0.67356      -     -    5s
     0     0    0.67359    0  189          -    0.67359      -     -    6s
     0     0    0.67360    0  193          -    0.67360      -     -    6s
     0     0    0.67360    0  203          -    0.67360      -     -    6s
     0     0    0.67365    0  207          -    0.67365      -     -    6s
     0     0    0.67366    0  188          -    0.67366      -     -    7s
     0     0    0.67366    0  193          -    0.67366      -     -    7s
     0     0    0.67366    0  194          -    0.67366      -     -    7s
     0     0    0.67367    0  195          -    0.67367      -     -    7s
     0     0    0.67367    0  195          -    0.67367      -     -    8s
     0     0    0.67367    0  193          -    0.67367      -     -    8s
     0     0    0.67367    0  193          -    0.67367      -     -    8s
     0     0    0.67367    0  192          -    0.67367      -     -    8s
     0     0    0.67367    0  191          -    0.67367      -     -    8s
     0     2    0.67394    0  190          -    0.67394      -     -    9s
     6     2 infeasible    3               -    0.67842      -   649   10s

Cutting planes:
  Learned: 8
  Cover: 20
  Implied bound: 66
  Clique: 7
  MIR: 63
  StrongCG: 1
  Flow cover: 24
  Zero half: 1
  Network: 10
  RLT: 11
  Relax-and-lift: 80
  BQP: 9

Explored 9 nodes (14232 simplex iterations) in 10.13 seconds (16.48 work units)
Thread count was 1 (of 20 available processors)

Solution count 0

Model is infeasible
Best objective -, best bound -, gap -

User-callback calls 4604, time in user-callback 0.00 sec
